32	0

0	3	2	3	4
10	2	5	8
9	3	5	6	8
1	3	5	6	8
4	1	7
9	2	9	10
4	2	9	10
8	2	9	10
9	3	11	12	15
9	3	11	12	15
2	2	13	14
5	2	13	14
2	2	16	17
6	3	16	18	20
8	2	16	17
10	3	21	22	23
5	2	18	20
5	4	19	21	22	23
9	2	24	25
7	3	21	22	23
4	2	24	25
2	2	24	25
10	3	24	26	27
5	2	28	29
6	2	26	27
3	2	28	29
3	2	28	29
7	2	30	31
8	2	30	31
4	1	32
4	1	32
0	0
